p cnf 430 1488
-191 -53 0
-191 3 0
-191 64 0
-191 137 0
-191 -97 0
191 53 -3 -64 -137 97 0
-192 -113 0
-192 65 0
-192 -66 0
-192 99 0
-192 -184 0
192 113 -65 66 -99 184 0
-193 -117 0
-193 98 0
-193 -163 0
-193 3 0
-193 122 0
193 117 -98 163 -3 -122 0
-194 -188 0
-194 -150 0
-194 -69 0
-194 85 0
-194 -75 0
194 188 150 69 -85 75 0
-195 -109 0
-195 -94 0
-195 -10 0
-195 -84 0
-195 181 0
195 109 94 10 84 -181 0
191 192 193 194 195 0
-196 -165 0
-196 65 0
-196 -164 0
-196 -157 0
-196 139 0
196 165 -65 164 157 -139 0
-197 64 0
-197 179 0
-197 72 0
-197 180 0
-197 5 0
197 -64 -179 -72 -180 -5 0
-198 116 0
-198 113 0
-198 184 0
-198 57 0
-198 38 0
198 -116 -113 -184 -57 -38 0
-199 -35 0
-199 34 0
-199 84 0
-199 58 0
-199 -60 0
199 35 -34 -84 -58 60 0
-200 -188 0
-200 29 0
-200 -25 0
-200 -137 0
-200 -129 0
200 188 -29 25 137 129 0
196 197 198 199 200 0
-201 140 0
-201 124 0
-201 -55 0
-201 2 0
-201 -60 0
201 -140 -124 55 -2 60 0
-202 137 0
-202 -179 0
-202 5 0
-202 61 0
-202 88 0
202 -137 179 -5 -61 -88 0
-203 175 0
-203 -100 0
-203 -150 0
-203 -82 0
-203 40 0
203 -175 100 150 82 -40 0
-204 -69 0
-204 65 0
-204 148 0
-204 -170 0
-204 114 0
204 69 -65 -148 170 -114 0
-205 -32 0
-205 36 0
-205 -170 0
-205 97 0
-205 86 0
205 32 -36 170 -97 -86 0
201 202 203 204 205 0
-206 111 0
-206 84 0
-206 -66 0
-206 -144 0
-206 135 0
206 -111 -84 66 144 -135 0
-207 -56 0
-207 -92 0
-207 161 0
-207 128 0
-207 -40 0
207 56 92 -161 -128 40 0
-208 -183 0
-208 43 0
-208 21 0
-208 -52 0
-208 75 0
208 183 -43 -21 52 -75 0
-209 -149 0
-209 -108 0
-209 24 0
-209 164 0
-209 -64 0
209 149 108 -24 -164 64 0
-210 52 0
-210 159 0
-210 102 0
-210 65 0
-210 90 0
210 -52 -159 -102 -65 -90 0
206 207 208 209 210 0
-211 -66 0
-211 -68 0
-211 188 0
-211 60 0
-211 -10 0
211 66 68 -188 -60 10 0
-212 -150 0
-212 41 0
-212 3 0
-212 -117 0
-212 -142 0
212 150 -41 -3 117 142 0
-213 71 0
-213 167 0
-213 116 0
-213 64 0
-213 -146 0
213 -71 -167 -116 -64 146 0
-214 67 0
-214 80 0
-214 113 0
-214 -65 0
-214 -42 0
214 -67 -80 -113 65 42 0
-215 -126 0
-215 39 0
-215 -40 0
-215 138 0
-215 30 0
215 126 -39 40 -138 -30 0
211 212 213 214 215 0
-216 35 0
-216 62 0
-216 -23 0
-216 -92 0
-216 -69 0
216 -35 -62 23 92 69 0
-217 13 0
-217 42 0
-217 87 0
-217 148 0
-217 141 0
217 -13 -42 -87 -148 -141 0
-218 77 0
-218 17 0
-218 187 0
-218 -65 0
-218 -121 0
218 -77 -17 -187 65 121 0
-219 55 0
-219 160 0
-219 22 0
-219 -43 0
-219 -33 0
219 -55 -160 -22 43 33 0
-220 -99 0
-220 171 0
-220 -189 0
-220 44 0
-220 30 0
220 99 -171 189 -44 -30 0
216 217 218 219 220 0
-221 156 0
-221 -166 0
-221 123 0
-221 83 0
-221 138 0
221 -156 166 -123 -83 -138 0
-222 -41 0
-222 98 0
-222 -44 0
-222 -146 0
-222 -123 0
222 41 -98 44 146 123 0
-223 124 0
-223 -173 0
-223 -163 0
-223 -76 0
-223 -49 0
223 -124 173 163 76 49 0
-224 36 0
-224 -61 0
-224 33 0
-224 -117 0
-224 20 0
224 -36 61 -33 117 -20 0
-225 150 0
-225 -61 0
-225 171 0
-225 47 0
-225 -55 0
225 -150 61 -171 -47 55 0
221 222 223 224 225 0
-226 -24 0
-226 -147 0
-226 -150 0
-226 -19 0
-226 -83 0
226 24 147 150 19 83 0
-227 -162 0
-227 -59 0
-227 -176 0
-227 -153 0
-227 -127 0
227 162 59 176 153 127 0
-228 42 0
-228 -121 0
-228 160 0
-228 -6 0
-228 -100 0
228 -42 121 -160 6 100 0
-229 120 0
-229 -190 0
-229 -173 0
-229 4 0
-229 40 0
229 -120 190 173 -4 -40 0
-230 8 0
-230 130 0
-230 47 0
-230 -2 0
-230 26 0
230 -8 -130 -47 2 -26 0
226 227 228 229 230 0
-231 96 0
-231 -4 0
-231 59 0
-231 181 0
-231 67 0
231 -96 4 -59 -181 -67 0
-232 19 0
-232 -50 0
-232 173 0
-232 -159 0
-232 180 0
232 -19 50 -173 159 -180 0
-233 -46 0
-233 107 0
-233 -99 0
-233 -156 0
-233 106 0
233 46 -107 99 156 -106 0
-234 117 0
-234 54 0
-234 -29 0
-234 83 0
-234 6 0
234 -117 -54 29 -83 -6 0
-235 34 0
-235 44 0
-235 -12 0
-235 125 0
-235 108 0
235 -34 -44 12 -125 -108 0
231 232 233 234 235 0
-236 -55 0
-236 -117 0
-236 -46 0
-236 -50 0
-236 103 0
236 55 117 46 50 -103 0
-237 172 0
-237 128 0
-237 -167 0
-237 117 0
-237 92 0
237 -172 -128 167 -117 -92 0
-238 -122 0
-238 -72 0
-238 -104 0
-238 147 0
-238 70 0
238 122 72 104 -147 -70 0
-239 -43 0
-239 166 0
-239 182 0
-239 158 0
-239 141 0
239 43 -166 -182 -158 -141 0
-240 76 0
-240 89 0
-240 29 0
-240 -24 0
-240 133 0
240 -76 -89 -29 24 -133 0
236 237 238 239 240 0
-241 -28 0
-241 36 0
-241 74 0
-241 -58 0
-241 175 0
241 28 -36 -74 58 -175 0
-242 -24 0
-242 133 0
-242 -60 0
-242 42 0
-242 -18 0
242 24 -133 60 -42 18 0
-243 -101 0
-243 88 0
-243 104 0
-243 100 0
-243 -10 0
243 101 -88 -104 -100 10 0
-244 -11 0
-244 -53 0
-244 -20 0
-244 -138 0
-244 -43 0
244 11 53 20 138 43 0
-245 188 0
-245 153 0
-245 37 0
-245 -15 0
-245 39 0
245 -188 -153 -37 15 -39 0
241 242 243 244 245 0
-246 36 0
-246 87 0
-246 91 0
-246 15 0
-246 -37 0
246 -36 -87 -91 -15 37 0
-247 185 0
-247 -8 0
-247 -13 0
-247 135 0
-247 -121 0
247 -185 8 13 -135 121 0
-248 -30 0
-248 3 0
-248 48 0
-248 -38 0
-248 61 0
248 30 -3 -48 38 -61 0
-249 5 0
-249 -101 0
-249 173 0
-249 -77 0
-249 -44 0
249 -5 101 -173 77 44 0
-250 -14 0
-250 155 0
-250 30 0
-250 128 0
-250 11 0
250 14 -155 -30 -128 -11 0
246 247 248 249 250 0
-251 -76 0
-251 -137 0
-251 -155 0
-251 6 0
-251 119 0
251 76 137 155 -6 -119 0
-252 49 0
-252 13 0
-252 83 0
-252 -2 0
-252 -137 0
252 -49 -13 -83 2 137 0
-253 -98 0
-253 -185 0
-253 -31 0
-253 90 0
-253 110 0
253 98 185 31 -90 -110 0
-254 -3 0
-254 -69 0
-254 65 0
-254 -122 0
-254 51 0
254 3 69 -65 122 -51 0
-255 112 0
-255 -109 0
-255 95 0
-255 103 0
-255 106 0
255 -112 109 -95 -103 -106 0
251 252 253 254 255 0
-256 5 0
-256 -19 0
-256 -112 0
-256 106 0
-256 181 0
256 -5 19 112 -106 -181 0
-257 72 0
-257 29 0
-257 -124 0
-257 -36 0
-257 -182 0
257 -72 -29 124 36 182 0
-258 146 0
-258 168 0
-258 -7 0
-258 -178 0
-258 65 0
258 -146 -168 7 178 -65 0
-259 51 0
-259 -59 0
-259 143 0
-259 -127 0
-259 -98 0
259 -51 59 -143 127 98 0
-260 52 0
-260 148 0
-260 98 0
-260 -4 0
-260 95 0
260 -52 -148 -98 4 -95 0
256 257 258 259 260 0
-261 108 0
-261 -182 0
-261 -148 0
-261 132 0
-261 97 0
261 -108 182 148 -132 -97 0
-262 154 0
-262 67 0
-262 -44 0
-262 179 0
-262 -115 0
262 -154 -67 44 -179 115 0
-263 65 0
-263 132 0
-263 14 0
-263 -112 0
-263 -162 0
263 -65 -132 -14 112 162 0
-264 -70 0
-264 12 0
-264 101 0
-264 66 0
-264 102 0
264 70 -12 -101 -66 -102 0
-265 -93 0
-265 -182 0
-265 -148 0
-265 -179 0
-265 -106 0
265 93 182 148 179 106 0
261 262 263 264 265 0
-266 182 0
-266 -116 0
-266 150 0
-266 158 0
-266 -51 0
266 -182 116 -150 -158 51 0
-267 92 0
-267 82 0
-267 -164 0
-267 54 0
-267 -4 0
267 -92 -82 164 -54 4 0
-268 88 0
-268 -115 0
-268 -169 0
-268 -106 0
-268 174 0
268 -88 115 169 106 -174 0
-269 72 0
-269 -163 0
-269 170 0
-269 -141 0
-269 183 0
269 -72 163 -170 141 -183 0
-270 -183 0
-270 95 0
-270 179 0
-270 142 0
-270 71 0
270 183 -95 -179 -142 -71 0
266 267 268 269 270 0
-271 -119 0
-271 -135 0
-271 -42 0
-271 107 0
-271 24 0
271 119 135 42 -107 -24 0
-272 -74 0
-272 179 0
-272 141 0
-272 -158 0
-272 7 0
272 74 -179 -141 158 -7 0
-273 -132 0
-273 32 0
-273 -166 0
-273 -149 0
-273 -100 0
273 132 -32 166 149 100 0
-274 34 0
-274 -18 0
-274 170 0
-274 9 0
-274 86 0
274 -34 18 -170 -9 -86 0
-275 -113 0
-275 131 0
-275 76 0
-275 188 0
-275 -60 0
275 113 -131 -76 -188 60 0
271 272 273 274 275 0
-276 67 0
-276 -79 0
-276 85 0
-276 -76 0
-276 152 0
276 -67 79 -85 76 -152 0
-277 -51 0
-277 -67 0
-277 20 0
-277 -88 0
-277 -187 0
277 51 67 -20 88 187 0
-278 40 0
-278 -69 0
-278 54 0
-278 24 0
-278 149 0
278 -40 69 -54 -24 -149 0
-279 -42 0
-279 -141 0
-279 37 0
-279 122 0
-279 24 0
279 42 141 -37 -122 -24 0
-280 -158 0
-280 -70 0
-280 190 0
-280 13 0
-280 -176 0
280 158 70 -190 -13 176 0
276 277 278 279 280 0
-281 28 0
-281 188 0
-281 154 0
-281 -48 0
-281 43 0
281 -28 -188 -154 48 -43 0
-282 109 0
-282 188 0
-282 124 0
-282 -170 0
-282 -9 0
282 -109 -188 -124 170 9 0
-283 -96 0
-283 -74 0
-283 -80 0
-283 -184 0
-283 -44 0
283 96 74 80 184 44 0
-284 -34 0
-284 -130 0
-284 64 0
-284 29 0
-284 -184 0
284 34 130 -64 -29 184 0
-285 -98 0
-285 92 0
-285 130 0
-285 89 0
-285 -70 0
285 98 -92 -130 -89 70 0
281 282 283 284 285 0
-286 -155 0
-286 67 0
-286 -112 0
-286 -87 0
-286 -77 0
286 155 -67 112 87 77 0
-287 188 0
-287 -46 0
-287 -45 0
-287 10 0
-287 30 0
287 -188 46 45 -10 -30 0
-288 -52 0
-288 71 0
-288 -94 0
-288 -64 0
-288 -87 0
288 52 -71 94 64 87 0
-289 -92 0
-289 -129 0
-289 -182 0
-289 -146 0
-289 57 0
289 92 129 182 146 -57 0
-290 -131 0
-290 113 0
-290 121 0
-290 -82 0
-290 -71 0
290 131 -113 -121 82 71 0
286 287 288 289 290 0
-291 123 0
-291 -9 0
-291 103 0
-291 -163 0
-291 105 0
291 -123 9 -103 163 -105 0
-292 148 0
-292 90 0
-292 -78 0
-292 62 0
-292 -31 0
292 -148 -90 78 -62 31 0
-293 63 0
-293 59 0
-293 -105 0
-293 82 0
-293 69 0
293 -63 -59 105 -82 -69 0
-294 82 0
-294 -99 0
-294 17 0
-294 -6 0
-294 148 0
294 -82 99 -17 6 -148 0
-295 -10 0
-295 -42 0
-295 -187 0
-295 88 0
-295 -57 0
295 10 42 187 -88 57 0
291 292 293 294 295 0
-296 -151 0
-296 -50 0
-296 -6 0
-296 121 0
-296 -31 0
296 151 50 6 -121 31 0
-297 -17 0
-297 -175 0
-297 -58 0
-297 -134 0
-297 69 0
297 17 175 58 134 -69 0
-298 126 0
-298 84 0
-298 19 0
-298 -165 0
-298 -183 0
298 -126 -84 -19 165 183 0
-299 -179 0
-299 -161 0
-299 118 0
-299 72 0
-299 -84 0
299 179 161 -118 -72 84 0
-300 -96 0
-300 -134 0
-300 -93 0
-300 60 0
-300 -129 0
300 96 134 93 -60 129 0
296 297 298 299 300 0
-301 156 0
-301 97 0
-301 55 0
-301 64 0
-301 3 0
301 -156 -97 -55 -64 -3 0
-302 6 0
-302 104 0
-302 -42 0
-302 2 0
-302 -109 0
302 -6 -104 42 -2 109 0
-303 -53 0
-303 -98 0
-303 -108 0
-303 97 0
-303 -177 0
303 53 98 108 -97 177 0
-304 137 0
-304 -56 0
-304 147 0
-304 104 0
-304 -22 0
304 -137 56 -147 -104 22 0
-305 122 0
-305 -49 0
-305 -162 0
-305 -104 0
-305 -47 0
305 -122 49 162 104 47 0
301 302 303 304 305 0
-306 -43 0
-306 48 0
-306 75 0
-306 184 0
-306 187 0
306 43 -48 -75 -184 -187 0
-307 -61 0
-307 21 0
-307 109 0
-307 184 0
-307 170 0
307 61 -21 -109 -184 -170 0
-308 180 0
-308 22 0
-308 89 0
-308 -111 0
-308 33 0
308 -180 -22 -89 111 -33 0
-309 57 0
-309 -46 0
-309 -138 0
-309 78 0
-309 135 0
309 -57 46 138 -78 -135 0
-310 161 0
-310 -54 0
-310 137 0
-310 -184 0
-310 67 0
310 -161 54 -137 184 -67 0
306 307 308 309 310 0
-311 85 0
-311 -44 0
-311 -65 0
-311 141 0
-311 102 0
311 -85 44 65 -141 -102 0
-312 36 0
-312 -135 0
-312 169 0
-312 143 0
-312 -171 0
312 -36 135 -169 -143 171 0
-313 119 0
-313 26 0
-313 -139 0
-313 -175 0
-313 -176 0
313 -119 -26 139 175 176 0
-314 -157 0
-314 183 0
-314 166 0
-314 -1 0
-314 169 0
314 157 -183 -166 1 -169 0
-315 132 0
-315 -170 0
-315 48 0
-315 -174 0
-315 62 0
315 -132 170 -48 174 -62 0
311 312 313 314 315 0
-316 92 0
-316 12 0
-316 -76 0
-316 175 0
-316 -96 0
316 -92 -12 76 -175 96 0
-317 -11 0
-317 129 0
-317 -100 0
-317 -92 0
-317 132 0
317 11 -129 100 92 -132 0
-318 74 0
-318 -91 0
-318 -103 0
-318 -82 0
-318 65 0
318 -74 91 103 82 -65 0
-319 57 0
-319 169 0
-319 -71 0
-319 49 0
-319 108 0
319 -57 -169 71 -49 -108 0
-320 170 0
-320 101 0
-320 172 0
-320 -165 0
-320 -140 0
320 -170 -101 -172 165 140 0
316 317 318 319 320 0
-321 -129 0
-321 -182 0
-321 106 0
-321 -156 0
-321 8 0
321 129 182 -106 156 -8 0
-322 -127 0
-322 132 0
-322 -187 0
-322 -35 0
-322 -67 0
322 127 -132 187 35 67 0
-323 -42 0
-323 73 0
-323 -130 0
-323 -17 0
-323 -38 0
323 42 -73 130 17 38 0
-324 -133 0
-324 -169 0
-324 63 0
-324 96 0
-324 52 0
324 133 169 -63 -96 -52 0
-325 118 0
-325 -97 0
-325 -181 0
-325 -145 0
-325 164 0
325 -118 97 181 145 -164 0
321 322 323 324 325 0
-326 139 0
-326 5 0
-326 138 0
-326 -111 0
-326 -183 0
326 -139 -5 -138 111 183 0
-327 107 0
-327 -121 0
-327 -162 0
-327 -59 0
-327 88 0
327 -107 121 162 59 -88 0
-328 132 0
-328 56 0
-328 -108 0
-328 -38 0
-328 -8 0
328 -132 -56 108 38 8 0
-329 -87 0
-329 3 0
-329 65 0
-329 153 0
-329 -56 0
329 87 -3 -65 -153 56 0
-330 145 0
-330 -105 0
-330 84 0
-330 -37 0
-330 -173 0
330 -145 105 -84 37 173 0
326 327 328 329 330 0
-331 -72 0
-331 -95 0
-331 -159 0
-331 -92 0
-331 171 0
331 72 95 159 92 -171 0
-332 -80 0
-332 -69 0
-332 61 0
-332 62 0
-332 173 0
332 80 69 -61 -62 -173 0
-333 69 0
-333 30 0
-333 175 0
-333 37 0
-333 152 0
333 -69 -30 -175 -37 -152 0
-334 41 0
-334 180 0
-334 31 0
-334 75 0
-334 -21 0
334 -41 -180 -31 -75 21 0
-335 -33 0
-335 103 0
-335 -57 0
-335 -1 0
-335 -128 0
335 33 -103 57 1 128 0
331 332 333 334 335 0
-336 -6 0
-336 41 0
-336 170 0
-336 -97 0
-336 -148 0
336 6 -41 -170 97 148 0
-337 94 0
-337 -117 0
-337 185 0
-337 -108 0
-337 2 0
337 -94 117 -185 108 -2 0
-338 -63 0
-338 -121 0
-338 -33 0
-338 11 0
-338 -130 0
338 63 121 33 -11 130 0
-339 -179 0
-339 -93 0
-339 33 0
-339 -54 0
-339 104 0
339 179 93 -33 54 -104 0
-340 39 0
-340 4 0
-340 26 0
-340 175 0
-340 71 0
340 -39 -4 -26 -175 -71 0
336 337 338 339 340 0
-341 -141 0
-341 -184 0
-341 71 0
-341 -73 0
-341 -44 0
341 141 184 -71 73 44 0
-342 8 0
-342 -111 0
-342 13 0
-342 116 0
-342 -187 0
342 -8 111 -13 -116 187 0
-343 30 0
-343 -43 0
-343 161 0
-343 -88 0
-343 11 0
343 -30 43 -161 88 -11 0
-344 175 0
-344 41 0
-344 180 0
-344 66 0
-344 -78 0
344 -175 -41 -180 -66 78 0
-345 164 0
-345 -151 0
-345 -59 0
-345 72 0
-345 -140 0
345 -164 151 59 -72 140 0
341 342 343 344 345 0
-346 78 0
-346 -31 0
-346 -55 0
-346 32 0
-346 7 0
346 -78 31 55 -32 -7 0
-347 157 0
-347 96 0
-347 -121 0
-347 -156 0
-347 80 0
347 -157 -96 121 156 -80 0
-348 144 0
-348 90 0
-348 -95 0
-348 25 0
-348 56 0
348 -144 -90 95 -25 -56 0
-349 176 0
-349 62 0
-349 -181 0
-349 147 0
-349 -152 0
349 -176 -62 181 -147 152 0
-350 -158 0
-350 33 0
-350 140 0
-350 50 0
-350 -105 0
350 158 -33 -140 -50 105 0
346 347 348 349 350 0
-351 109 0
-351 165 0
-351 -2 0
-351 -37 0
-351 136 0
351 -109 -165 2 37 -136 0
-352 -188 0
-352 38 0
-352 158 0
-352 15 0
-352 96 0
352 188 -38 -158 -15 -96 0
-353 -38 0
-353 62 0
-353 -36 0
-353 82 0
-353 -173 0
353 38 -62 36 -82 173 0
-354 -156 0
-354 81 0
-354 12 0
-354 137 0
-354 -124 0
354 156 -81 -12 -137 124 0
-355 -100 0
-355 -15 0
-355 43 0
-355 -46 0
-355 -119 0
355 100 15 -43 46 119 0
351 352 353 354 355 0
-356 23 0
-356 -11 0
-356 105 0
-356 142 0
-356 59 0
356 -23 11 -105 -142 -59 0
-357 -175 0
-357 -64 0
-357 120 0
-357 34 0
-357 73 0
357 175 64 -120 -34 -73 0
-358 -108 0
-358 -12 0
-358 -183 0
-358 -105 0
-358 8 0
358 108 12 183 105 -8 0
-359 -122 0
-359 -138 0
-359 156 0
-359 151 0
-359 -164 0
359 122 138 -156 -151 164 0
-360 -176 0
-360 -99 0
-360 74 0
-360 -114 0
-360 140 0
360 176 99 -74 114 -140 0
356 357 358 359 360 0
-361 -24 0
-361 172 0
-361 116 0
-361 -34 0
-361 151 0
361 24 -172 -116 34 -151 0
-362 37 0
-362 76 0
-362 -156 0
-362 59 0
-362 -91 0
362 -37 -76 156 -59 91 0
-363 19 0
-363 169 0
-363 146 0
-363 64 0
-363 -79 0
363 -19 -169 -146 -64 79 0
-364 86 0
-364 -159 0
-364 -110 0
-364 -182 0
-364 -79 0
364 -86 159 110 182 79 0
-365 -188 0
-365 94 0
-365 -131 0
-365 -9 0
-365 -70 0
365 188 -94 131 9 70 0
361 362 363 364 365 0
-366 -137 0
-366 41 0
-366 -128 0
-366 -170 0
-366 61 0
366 137 -41 128 170 -61 0
-367 -59 0
-367 64 0
-367 160 0
-367 -166 0
-367 -24 0
367 59 -64 -160 166 24 0
-368 35 0
-368 -21 0
-368 153 0
-368 -3 0
-368 151 0
368 -35 21 -153 3 -151 0
-369 -18 0
-369 -77 0
-369 158 0
-369 168 0
-369 34 0
369 18 77 -158 -168 -34 0
-370 167 0
-370 -118 0
-370 -101 0
-370 -141 0
-370 121 0
370 -167 118 101 141 -121 0
366 367 368 369 370 0
-371 36 0
-371 181 0
-371 99 0
-371 58 0
-371 53 0
371 -36 -181 -99 -58 -53 0
-372 92 0
-372 9 0
-372 104 0
-372 -50 0
-372 -106 0
372 -92 -9 -104 50 106 0
-373 136 0
-373 -66 0
-373 -174 0
-373 36 0
-373 -57 0
373 -136 66 174 -36 57 0
-374 57 0
-374 -74 0
-374 -31 0
-374 141 0
-374 -135 0
374 -57 74 31 -141 135 0
-375 149 0
-375 50 0
-375 77 0
-375 53 0
-375 107 0
375 -149 -50 -77 -53 -107 0
371 372 373 374 375 0
-376 -77 0
-376 155 0
-376 -35 0
-376 127 0
-376 -149 0
376 77 -155 35 -127 149 0
-377 119 0
-377 101 0
-377 16 0
-377 -99 0
-377 110 0
377 -119 -101 -16 99 -110 0
-378 -61 0
-378 -68 0
-378 -91 0
-378 94 0
-378 166 0
378 61 68 91 -94 -166 0
-379 107 0
-379 5 0
-379 -121 0
-379 96 0
-379 -185 0
379 -107 -5 121 -96 185 0
-380 -53 0
-380 -77 0
-380 71 0
-380 -152 0
-380 -148 0
380 53 77 -71 152 148 0
376 377 378 379 380 0
-381 128 0
-381 14 0
-381 127 0
-381 142 0
-381 -47 0
381 -128 -14 -127 -142 47 0
-382 -154 0
-382 -137 0
-382 -42 0
-382 -182 0
-382 -46 0
382 154 137 42 182 46 0
-383 34 0
-383 -109 0
-383 172 0
-383 54 0
-383 56 0
383 -34 109 -172 -54 -56 0
-384 -32 0
-384 33 0
-384 -39 0
-384 185 0
-384 7 0
384 32 -33 39 -185 -7 0
-385 118 0
-385 -72 0
-385 -81 0
-385 129 0
-385 131 0
385 -118 72 81 -129 -131 0
381 382 383 384 385 0
-386 -181 0
-386 8 0
-386 176 0
-386 67 0
-386 -29 0
386 181 -8 -176 -67 29 0
-387 5 0
-387 -157 0
-387 -107 0
-387 89 0
-387 124 0
387 -5 157 107 -89 -124 0
-388 -67 0
-388 72 0
-388 -47 0
-388 -12 0
-388 180 0
388 67 -72 47 12 -180 0
-389 56 0
-389 67 0
-389 127 0
-389 -181 0
-389 -55 0
389 -56 -67 -127 181 55 0
-390 33 0
-390 -42 0
-390 -58 0
-390 121 0
-390 -44 0
390 -33 42 58 -121 44 0
386 387 388 389 390 0
-391 171 0
-391 -131 0
-391 -148 0
-391 21 0
-391 56 0
391 -171 131 148 -21 -56 0
-392 -89 0
-392 -107 0
-392 -69 0
-392 110 0
-392 -113 0
392 89 107 69 -110 113 0
-393 -137 0
-393 -37 0
-393 -21 0
-393 -17 0
-393 149 0
393 137 37 21 17 -149 0
-394 -160 0
-394 -116 0
-394 -126 0
-394 3 0
-394 -89 0
394 160 116 126 -3 89 0
-395 37 0
-395 88 0
-395 145 0
-395 86 0
-395 7 0
395 -37 -88 -145 -86 -7 0
391 392 393 394 395 0
-396 -72 0
-396 -94 0
-396 -148 0
-396 -93 0
-396 -62 0
396 72 94 148 93 62 0
-397 189 0
-397 -2 0
-397 -103 0
-397 184 0
-397 -183 0
397 -189 2 103 -184 183 0
-398 102 0
-398 83 0
-398 -139 0
-398 175 0
-398 159 0
398 -102 -83 139 -175 -159 0
-399 -138 0
-399 -73 0
-399 -190 0
-399 -45 0
-399 -85 0
399 138 73 190 45 85 0
-400 -47 0
-400 -52 0
-400 90 0
-400 177 0
-400 98 0
400 47 52 -90 -177 -98 0
396 397 398 399 400 0
-401 -184 0
-401 -27 0
-401 80 0
-401 116 0
-401 -75 0
401 184 27 -80 -116 75 0
-402 -138 0
-402 -124 0
-402 4 0
-402 51 0
-402 1 0
402 138 124 -4 -51 -1 0
-403 182 0
-403 -44 0
-403 190 0
-403 18 0
-403 31 0
403 -182 44 -190 -18 -31 0
-404 -113 0
-404 -80 0
-404 53 0
-404 78 0
-404 -127 0
404 113 80 -53 -78 127 0
-405 -154 0
-405 -20 0
-405 28 0
-405 -149 0
-405 112 0
405 154 20 -28 149 -112 0
401 402 403 404 405 0
-406 126 0
-406 -69 0
-406 173 0
-406 26 0
-406 -165 0
406 -126 69 -173 -26 165 0
-407 -165 0
-407 49 0
-407 -46 0
-407 147 0
-407 119 0
407 165 -49 46 -147 -119 0
-408 106 0
-408 -40 0
-408 -11 0
-408 81 0
-408 134 0
408 -106 40 11 -81 -134 0
-409 -118 0
-409 -143 0
-409 15 0
-409 168 0
-409 3 0
409 118 143 -15 -168 -3 0
-410 -76 0
-410 45 0
-410 126 0
-410 -127 0
-410 98 0
410 76 -45 -126 127 -98 0
406 407 408 409 410 0
-411 -44 0
-411 -121 0
-411 -30 0
-411 -114 0
-411 -10 0
411 44 121 30 114 10 0
-412 -171 0
-412 -105 0
-412 60 0
-412 61 0
-412 -178 0
412 171 105 -60 -61 178 0
-413 -73 0
-413 34 0
-413 -112 0
-413 2 0
-413 96 0
413 73 -34 112 -2 -96 0
-414 -53 0
-414 -169 0
-414 21 0
-414 173 0
-414 -123 0
414 53 169 -21 -173 123 0
-415 -37 0
-415 62 0
-415 110 0
-415 108 0
-415 164 0
415 37 -62 -110 -108 -164 0
411 412 413 414 415 0
-416 158 0
-416 91 0
-416 -178 0
-416 148 0
-416 -133 0
416 -158 -91 178 -148 133 0
-417 -20 0
-417 137 0
-417 26 0
-417 -13 0
-417 23 0
417 20 -137 -26 13 -23 0
-418 61 0
-418 72 0
-418 103 0
-418 28 0
-418 179 0
418 -61 -72 -103 -28 -179 0
-419 99 0
-419 56 0
-419 -101 0
-419 36 0
-419 -48 0
419 -99 -56 101 -36 48 0
-420 -179 0
-420 -161 0
-420 167 0
-420 164 0
-420 109 0
420 179 161 -167 -164 -109 0
416 417 418 419 420 0
-421 -132 0
-421 97 0
-421 -113 0
-421 -140 0
-421 157 0
421 132 -97 113 140 -157 0
-422 42 0
-422 -108 0
-422 -67 0
-422 -23 0
-422 -78 0
422 -42 108 67 23 78 0
-423 -102 0
-423 88 0
-423 -173 0
-423 160 0
-423 34 0
423 102 -88 173 -160 -34 0
-424 104 0
-424 17 0
-424 -70 0
-424 -150 0
-424 139 0
424 -104 -17 70 150 -139 0
-425 111 0
-425 174 0
-425 160 0
-425 86 0
-425 18 0
425 -111 -174 -160 -86 -18 0
421 422 423 424 425 0
-426 187 0
-426 -162 0
-426 177 0
-426 80 0
-426 182 0
426 -187 162 -177 -80 -182 0
-427 28 0
-427 -45 0
-427 135 0
-427 60 0
-427 -154 0
427 -28 45 -135 -60 154 0
-428 66 0
-428 -35 0
-428 190 0
-428 77 0
-428 -187 0
428 -66 35 -190 -77 187 0
-429 41 0
-429 -21 0
-429 -15 0
-429 -157 0
-429 89 0
429 -41 21 15 157 -89 0
-430 -139 0
-430 -134 0
-430 2 0
-430 66 0
-430 25 0
430 139 134 -2 -66 -25 0
426 427 428 429 430 0
